instances/benchmark/p2_10_20-3.dzn
Alphabet = {A,C,G,T};
ns = 10;
nc = 19;
sl = 10;
neighbours = [| I(G),I(C),I(G),I(T),I(C),I(T),I(G),I(A),I(T),I(C),I(C),I(C),I(A),I(T),I(A),I(T),I(A),I(A),I(T) | I(G),I(G),I(A),I(C),I(G),I(A),I(C),I(T),I(T),I(G),I(G),I(C),Null,Null,Null,Null,Null,Null,Null | I(C),I(C),Null,Null,Null,Null,Null,Null,Null,Null,Null,Null,Null,Null,Null,Null,Null,Null,Null | I(G),I(T),I(G),I(C),I(G),I(T),I(A),I(A),I(G),I(A),I(T),I(A),I(T),I(C),I(T),I(C),I(T),I(A),Null | I(T),I(A),I(T),I(T),I(A),I(T),Null,Null,Null,Null,Null,Null,Null,Null,Null,Null,Null,Null,Null | I(T),I(C),I(A),I(C),I(T),I(T),Null,Null,Null,Null,Null,Null,Null,Null,Null,Null,Null,Null,Null | I(A),I(C),I(T),I(C),I(G),I(C),I(A),I(T),I(T),I(G),I(C),Null,Null,Null,Null,Null,Null,Null,Null | I(T),I(T),I(T),I(G),I(G),I(A),I(T),I(A),I(G),I(C),I(G),I(G),I(C),I(A),I(C),Null,Null,Null,Null | I(T),I(C),I(A),I(T),I(C),I(A),I(C),I(T),Null,Null,Null,Null,Null,Null,Null,Null,Null,Null,Null | I(C),I(T),I(A),I(G),I(T),I(A),I(C),I(A),I(G),I(C),I(A),I(T),I(G),I(T),Null,Null,Null,Null,Null |];
