instances/benchmark/p2_10_20-3.txt
{
	"num_strings": 10,
	"alphabet": "ACGT",
	"strings": [
		"GCGTCTGATCCCATATAAT",
		"GGACGACTTGGC",
		"CC",
		"GTGCGTAAGATATCTCTA",
		"TATTAT",
		"TCACTT",
		"ACTCGCATTGC",
		"TTTGGATAGCGGCAC",
		"TCATCACT",
		"CTAGTACAGCATGT"
	],
	"str_length":[19,12,2,18,6,6,11,15,8,14]
}